p cnf 11 38
-11 10 1 0
11 -9 -8 0
-11 -9 7 0
-11 9 4 0
11 -9 -3 0
-11 -9 3 0
-11 -7 6 0
11 -4 -2 0
11 -4 -1 0
-10 -9 -8 0
10 -9 7 0
-10 9 -6 0
10 9 2 0
10 8 -7 0
-10 -8 4 0
-10 -6 4 0
-10 -6 -1 0
-10 -6 1 0
-10 5 4 0
10 5 3 0
10 -5 -1 0
10 5 -1 0
-10 -4 3 0
9 -8 -5 0
-9 -8 3 0
-9 7 -6 0
9 -6 -5 0
-9 -5 -1 0
-9 4 -2 0
-9 3 1 0
8 7 5 0
8 7 2 0
-8 -6 3 0
8 4 1 0
-8 -3 1 0
-7 6 4 0
-5 4 1 0
-5 -2 -1 0
